m = 6;

n = 9;

L = [190, 185, 185, 190, 195, 185];

S = [11, 11, 23, 16, 2, 1, 24, 14, 20];

D = [|0, 199, 119, 28, 179, 77, 145, 61, 123, 87
   |199, 0, 81, 206, 38, 122, 55, 138, 76, 113
   |119, 81, 0, 126, 69, 121, 26, 117, 91, 32
   |28, 206, 126, 0, 186, 84, 152, 68, 130, 94
   |169, 38, 79, 176, 0, 92, 58, 108, 46, 98
   |77, 122, 121, 84, 102, 0, 100, 16, 46, 96
   |145, 55, 26, 152, 58, 100, 0, 91, 70, 58
   |61, 138, 113, 68, 118, 16, 91, 0, 62, 87
   |123, 76, 91, 130, 56, 46, 70, 62, 0, 66
   |87, 113, 32, 94, 94, 96, 58, 87, 66, 0
|];
